
Gurobi 13.0.1 (linux64) logging started Thu Mar 26 06:03:20 2026

Set parameter LogFile to value "logs_sparse/50B_6F_robust_gamma_0d75_theta_0d05199999999999999_2026-03-26_06h03m07s.log"
Set parameter MIPGap to value 0.005
Set parameter OptimalityTol to value 0.005
Gurobi Optimizer version 13.0.1 build v13.0.1rc0 (linux64 - "Linux Mint 22")

CPU model: 12th Gen Intel(R) Core(TM) i7-12700, instruction set [SSE2|AVX|AVX2]
Thread count: 20 physical cores, 20 logical processors, using up to 20 threads

Non-default parameters:
TimeLimit  3600
SoftMemLimit  12
MIPGap  0.005
OptimalityTol  0.005

Optimize a model with 60351 rows, 780571 columns and 2406497 nonzeros (Max)
Model fingerprint: 0x29ec61b4
Model has 735061 linear objective coefficients
Variable types: 15571 continuous, 765000 integer (765000 binary)
Coefficient statistics:
  Matrix range     [3e-05, 1e+05]
  Objective range  [1e+00, 3e+03]
  Bounds range     [1e+00, 1e+05]
  RHS range        [8e-03, 1e+05]

Presolve removed 31036 rows and 564142 columns
Presolve time: 1.38s
Presolved: 29315 rows, 216429 columns, 690965 nonzeros
Variable types: 7521 continuous, 208908 integer (208908 binary)
Found heuristic solution: objective -3.92159e+08
Found heuristic solution: objective -3.91453e+08
Deterministic concurrent LP optimizer: primal simplex, dual simplex, and barrier
Showing barrier log only...

Root barrier log...

Ordering time: 0.42s

Barrier statistics:
 AA' NZ     : 4.006e+05
 Factor NZ  : 3.152e+06 (roughly 120 MB of memory)
 Factor Ops : 6.047e+08 (less than 1 second per iteration)
 Threads    : 18

                  Objective                Residual
Iter       Primal          Dual         Primal    Dual     Compl     Time
   0  -4.95856880e+11  1.05070959e+09  6.85e+06 1.02e+03  6.74e+06     3s
   1  -6.22110774e+10  1.88924185e+09  8.60e+05 4.50e-11  8.64e+05     3s
   2  -2.40445407e+09  1.46802611e+09  3.20e+04 5.23e-11  3.54e+04     3s
   3  -1.04037562e+08  8.62463406e+08  2.15e+03 6.56e-11  3.77e+03     3s
   4   2.93069246e+07  4.23220101e+08  4.68e+02 4.77e-11  1.15e+03     3s
   5   5.12310030e+07  1.95496562e+08  1.97e+02 4.41e-11  4.17e+02     3s
   6   5.87130233e+07  1.47610299e+08  1.03e+02 5.07e-11  2.46e+02     3s
   7   6.53011419e+07  1.13460443e+08  2.30e+01 4.73e-11  1.18e+02     3s
   8   6.63612338e+07  7.89255369e+07  1.15e+01 4.55e-10  3.25e+01     3s
   9   6.67820654e+07  7.13895874e+07  7.04e+00 4.00e-10  1.21e+01     3s
  10   6.68290290e+07  7.06663797e+07  6.55e+00 4.45e-10  1.00e+01     3s
  11   6.73814010e+07  6.90800996e+07  1.01e+00 3.62e-10  3.92e+00     3s
  12   6.73984548e+07  6.90471651e+07  9.03e-01 4.82e-10  3.80e+00     3s
  13   6.74246997e+07  6.87809197e+07  7.59e-01 4.88e-10  3.10e+00     3s
  14   6.74686215e+07  6.84336474e+07  5.61e-01 5.21e-10  2.18e+00     3s
  15   6.75410899e+07  6.79798725e+07  3.17e-01 3.85e-10  9.84e-01     3s
  16   6.76519071e+07  6.77803686e+07  7.01e-02 3.82e-10  2.87e-01     3s
  17   6.76710940e+07  6.77669927e+07  3.30e-02 3.58e-10  2.14e-01     3s
  18   6.76786787e+07  6.77299684e+07  1.97e-02 3.27e-10  1.15e-01     3s
  19   6.76862214e+07  6.77135334e+07  8.22e-03 3.70e-10  6.10e-02     3s
  20   6.76888506e+07  6.77040361e+07  4.83e-03 3.92e-10  3.39e-02     3s
  21   6.76908183e+07  6.76997615e+07  2.71e-03 4.68e-10  2.00e-02     3s
  22   6.76918145e+07  6.76975674e+07  1.72e-03 3.87e-10  1.29e-02     4s
  23   6.76922725e+07  6.76968096e+07  1.00e-03 5.25e-10  1.01e-02     4s
  24   6.76926096e+07  6.76965323e+07  6.95e-04 4.80e-10  8.76e-03     4s
  25   6.76928723e+07  6.76958267e+07  4.55e-04 4.27e-10  6.60e-03     4s
  26   6.76931252e+07  6.76951460e+07  1.80e-04 4.26e-10  4.52e-03     4s
  27   6.76932290e+07  6.76945175e+07  8.85e-05 4.45e-10  2.88e-03     4s
  28   6.76932808e+07  6.76940667e+07  3.38e-05 3.77e-10  1.76e-03     4s
  29   6.76933037e+07  6.76936187e+07  2.25e-05 4.01e-10  7.04e-04     4s
  30   6.76933174e+07  6.76935560e+07  1.73e-05 3.60e-10  5.33e-04     4s
  31   6.76933432e+07  6.76934602e+07  7.78e-06 3.85e-10  2.61e-04     4s
  32   6.76933568e+07  6.76933981e+07  3.34e-06 3.64e-10  9.22e-05     4s
  33   6.76933656e+07  6.76933804e+07  9.52e-07 3.21e-10  3.30e-05     4s
  34   6.76933686e+07  6.76933758e+07  2.30e-07 3.70e-10  1.61e-05     4s
  35   6.76933692e+07  6.76933727e+07  8.78e-08 3.48e-10  7.92e-06     4s
  36   6.76933695e+07  6.76933704e+07  7.79e-08 3.76e-10  1.94e-06     4s
  37   6.76933697e+07  6.76933698e+07  2.97e-08 3.85e-10  1.54e-07     4s
  38   6.76933697e+07  6.76933697e+07  1.73e-09 3.05e-10  3.01e-11     4s

Barrier solved model in 38 iterations and 4.23 seconds (5.97 work units)
Optimal objective 6.76933697e+07


Root simplex log...

Iteration    Objective       Primal Inf.    Dual Inf.      Time
   14127    6.7693370e+07   0.000000e+00   3.964862e+04      5s
   18467    6.7693370e+07   0.000000e+00   0.000000e+00      6s
Crossover time: 1.71 seconds (2.07 work units)
Concurrent spin time: 0.07s

Solved with barrier

Root relaxation: objective 6.769337e+07, 18467 iterations, 4.22 seconds (5.08 work units)

    Nodes    |    Current Node    |     Objective Bounds      |     Work
 Expl Unexpl |  Obj  Depth IntInf | Incumbent    BestBd   Gap | It/Node Time

     0     0 6.7693e+07    0 4282 -3.915e+08 6.7693e+07   117%     -    7s
H    0     0                    -2.25235e+08 6.7693e+07   130%     -    9s
H    0     0                    -1.13973e+08 6.7693e+07   159%     -    9s
H    0     0                    -6.18891e+07 6.7693e+07   209%     -   15s
H    0     0                    -5.14838e+07 6.7693e+07   231%     -   15s
H    0     0                    -3.24490e+07 6.7693e+07   309%     -   19s
H    0     0                    3.499544e+07 6.7693e+07  93.4%     -   19s
     0     0 6.7693e+07    0 4931 3.4995e+07 6.7693e+07  93.4%     -   77s
H    0     0                    3.499730e+07 6.7693e+07  93.4%     -   79s
H    0     0                    3.515954e+07 6.7693e+07  92.5%     -   85s
H    0     0                    3.529541e+07 6.7693e+07  91.8%     -   92s
H    0     0                    3.529644e+07 6.7693e+07  91.8%     -  107s
H    0     0                    3.546681e+07 6.7693e+07  90.9%     -  107s
H    0     0                    3.589750e+07 6.7693e+07  88.6%     -  107s
H    0     0                    3.589852e+07 6.7693e+07  88.6%     -  110s
H    0     0                    3.606672e+07 6.7693e+07  87.7%     -  110s
H    0     0                    4.520120e+07 6.7693e+07  49.8%     -  117s
H    0     0                    4.589931e+07 6.7693e+07  47.5%     -  117s
H    0     0                    4.589964e+07 6.7693e+07  47.5%     -  117s
H    0     0                    4.590367e+07 6.7693e+07  47.5%     -  117s
H    0     0                    4.590439e+07 6.7693e+07  47.5%     -  121s
H    0     0                    4.590467e+07 6.7693e+07  47.5%     -  127s
H    0     0                    4.590504e+07 6.7693e+07  47.5%     -  139s
     0     0 6.7693e+07    0 4915 4.5905e+07 6.7693e+07  47.5%     -  171s
     0     0 6.7693e+07    0 5677 4.5905e+07 6.7693e+07  47.5%     -  252s
H    0     0                    4.775506e+07 6.7693e+07  41.8%     -  253s
H    0     0                    5.889550e+07 6.7693e+07  14.9%     -  255s
H    0     0                    5.889550e+07 6.7693e+07  14.9%     -  261s
H    0     0                    5.889572e+07 6.7693e+07  14.9%     -  261s
H    0     0                    6.040375e+07 6.7693e+07  12.1%     -  261s
     0     0 6.7693e+07    0 5709 6.0404e+07 6.7693e+07  12.1%     -  271s
     0     0 6.7693e+07    0 5894 6.0404e+07 6.7693e+07  12.1%     -  364s
     0     0 6.7693e+07    0 5441 6.0404e+07 6.7693e+07  12.1%     -  383s
     0     0 6.7693e+07    0 5351 6.0404e+07 6.7693e+07  12.1%     -  511s
H    0     0                    6.046638e+07 6.7693e+07  12.0%     -  521s
     0     0 6.7693e+07    0 5520 6.0466e+07 6.7693e+07  12.0%     -  538s
     0     0 6.7693e+07    0 5663 6.0466e+07 6.7693e+07  12.0%     -  552s
     0     0 6.7693e+07    0 6955 6.0466e+07 6.7693e+07  12.0%     -  620s
     0     0 6.7693e+07    0 6491 6.0466e+07 6.7693e+07  12.0%     -  650s
     0     0 6.7692e+07    0 7121 6.0466e+07 6.7692e+07  12.0%     -  715s
H    0     0                    6.046913e+07 6.7692e+07  11.9%     -  722s
H    0     0                    6.095033e+07 6.7692e+07  11.1%     -  729s
H    0     0                    6.095201e+07 6.7692e+07  11.1%     -  744s
H    0     0                    6.096690e+07 6.7692e+07  11.0%     -  754s
H    0     0                    6.117932e+07 6.7692e+07  10.6%     -  754s
H    0     0                    6.146612e+07 6.7692e+07  10.1%     -  754s
H    0     0                    6.158984e+07 6.7692e+07  9.91%     -  754s
H    0     0                    6.180258e+07 6.7692e+07  9.53%     -  754s
     0     0 6.7692e+07    0 6938 6.1803e+07 6.7692e+07  9.53%     -  783s
     0     0 6.7692e+07    0 7202 6.1803e+07 6.7692e+07  9.53%     -  828s
     0     0 6.7692e+07    0 7202 6.1803e+07 6.7692e+07  9.53%     -  830s
     0     0 6.7692e+07    0 6422 6.1803e+07 6.7692e+07  9.53%     -  831s
H    0     0                    6.184529e+07 6.7692e+07  9.45%     -  876s
H    0     0                    6.184633e+07 6.7692e+07  9.45%     -  879s
     0     2 6.7692e+07    0 6422 6.1846e+07 6.7692e+07  9.45%     - 1041s
H    1     4                    6.225052e+07 6.7692e+07  8.74%   0.0 1096s
     3     8 6.7692e+07    2 6959 6.2251e+07 6.7692e+07  8.74% 26323 1136s
     7    16 6.7692e+07    3 6681 6.2251e+07 6.7692e+07  8.74% 31359 1210s
H    8    16                    6.269042e+07 6.7692e+07  7.98% 27440 1210s
    15    24 6.7692e+07    4 6368 6.2690e+07 6.7692e+07  7.98% 44717 2232s
H   23    38                    6.372973e+07 6.7692e+07  6.22% 135128 2891s
H   28    38                    6.384318e+07 6.7692e+07  6.03% 119351 2891s
H   37    58                    6.384534e+07 6.7692e+07  6.03% 118386 3225s
H   41    58                    6.385241e+07 6.7692e+07  6.01% 108127 3225s
H   57    78                    6.438808e+07 6.7692e+07  5.13% 82647 3600s
H   58    78                    6.480768e+07 6.7692e+07  4.45% 81298 3600s

Cutting planes:
  Gomory: 5
  MIR: 14
  Flow cover: 87
  Zero half: 4
  Mod-K: 1
  RLT: 4047
  Relax-and-lift: 118

Explored 77 nodes (5875072 simplex iterations) in 3600.23 seconds (4476.89 work units)
Thread count was 20 (of 20 available processors)

Solution count 10: 6.48077e+07 6.43881e+07 6.38524e+07 ... 6.18453e+07

Time limit reached
Best objective 6.480768279263e+07, best bound 6.769245055737e+07, gap 4.4513%
